40	100	100	100
54	90	27
16	41	36
11	44	58
79	95	53
91	75	62
5	38	47
48	91	6
93	57	55
32	66	89
99	2	98
73	15	37
30	99	62
51	65	80
85	9	8
52	48	51
90	18	3
29	95	87
97	3	76
16	96	47
86	40	77
90	64	31
6	63	36
76	75	48
63	77	96
3	73	89
73	86	56
44	73	78
23	11	33
1	50	29
16	75	70
21	18	98
37	24	48
5	12	21
24	78	50
65	43	68
59	99	19
81	60	31
92	99	75
53	27	73
20	84	67
